c "879858.clq"
p edge 141 548
e 1 5
e 1 6
e 1 7
e 1 8
e 1 18
e 1 21
e 1 31
e 1 57
e 1 60
e 1 69
e 1 94
e 1 98
e 2 5
e 2 6
e 2 9
e 2 10
e 2 12
e 2 13
e 2 14
e 2 15
e 2 23
e 2 40
e 2 44
e 2 49
e 2 57
e 2 60
e 2 64
e 2 82
e 2 88
e 2 89
e 2 97
e 2 109
e 2 134
e 2 135
e 2 138
e 3 5
e 3 9
e 3 18
e 3 24
e 3 69
e 3 80
e 3 87
e 4 5
e 4 6
e 4 7
e 4 10
e 4 15
e 4 16
e 4 22
e 4 36
e 4 39
e 4 43
e 4 44
e 4 46
e 4 51
e 4 53
e 4 58
e 4 59
e 4 62
e 4 67
e 4 69
e 4 72
e 4 74
e 4 85
e 4 86
e 4 112
e 4 121
e 4 128
e 4 135
e 5 6
e 5 7
e 5 8
e 5 9
e 5 10
e 5 11
e 5 12
e 5 13
e 5 20
e 5 23
e 5 24
e 5 25
e 5 28
e 5 36
e 5 37
e 5 39
e 5 43
e 5 47
e 5 62
e 5 63
e 5 66
e 5 72
e 5 83
e 5 87
e 5 101
e 5 103
e 5 118
e 6 7
e 6 8
e 6 9
e 6 11
e 6 17
e 6 19
e 6 27
e 6 29
e 6 32
e 6 37
e 6 48
e 6 49
e 6 50
e 6 55
e 6 59
e 6 64
e 6 66
e 6 79
e 6 86
e 6 98
e 6 107
e 6 108
e 6 111
e 6 131
e 6 134
e 7 8
e 7 11
e 7 12
e 7 13
e 7 14
e 7 15
e 7 17
e 7 25
e 7 26
e 7 28
e 7 32
e 7 33
e 7 35
e 7 40
e 7 52
e 7 57
e 7 58
e 7 67
e 7 71
e 7 75
e 7 88
e 7 101
e 7 106
e 7 116
e 7 134
e 7 135
e 7 141
e 8 16
e 8 19
e 8 27
e 8 38
e 8 59
e 8 76
e 8 78
e 8 92
e 8 113
e 8 130
e 9 10
e 9 16
e 9 22
e 9 27
e 9 65
e 9 75
e 9 86
e 9 101
e 9 108
e 9 123
e 9 139
e 10 11
e 10 18
e 10 19
e 10 20
e 10 31
e 10 33
e 10 37
e 10 41
e 10 49
e 10 50
e 10 55
e 10 85
e 10 88
e 10 108
e 10 117
e 10 131
e 10 136
e 11 12
e 11 14
e 11 17
e 11 18
e 11 20
e 11 22
e 11 24
e 11 29
e 11 30
e 11 35
e 11 39
e 11 47
e 11 60
e 11 62
e 11 64
e 11 70
e 11 87
e 12 13
e 12 15
e 12 17
e 12 36
e 12 38
e 12 45
e 12 47
e 12 85
e 12 109
e 12 111
e 12 118
e 13 14
e 13 16
e 13 19
e 13 21
e 13 22
e 13 25
e 13 26
e 13 28
e 13 34
e 13 40
e 13 43
e 13 49
e 13 68
e 13 84
e 13 97
e 13 103
e 13 110
e 13 120
e 13 121
e 13 129
e 14 45
e 14 62
e 14 72
e 14 122
e 15 44
e 15 53
e 16 20
e 16 21
e 16 23
e 16 30
e 16 41
e 16 45
e 16 46
e 16 75
e 16 79
e 16 91
e 16 103
e 16 110
e 16 117
e 16 133
e 16 134
e 16 136
e 17 67
e 17 69
e 17 70
e 17 93
e 17 109
e 17 131
e 18 23
e 18 24
e 18 26
e 18 31
e 18 33
e 18 34
e 18 35
e 18 41
e 18 42
e 18 54
e 18 78
e 18 81
e 18 95
e 18 112
e 19 30
e 19 37
e 19 42
e 19 56
e 19 59
e 19 77
e 19 79
e 19 80
e 19 84
e 19 88
e 19 97
e 19 98
e 19 106
e 19 107
e 19 115
e 19 119
e 19 127
e 19 132
e 20 21
e 20 33
e 20 47
e 20 95
e 20 102
e 20 114
e 20 121
e 20 130
e 21 29
e 21 38
e 21 46
e 21 56
e 21 67
e 21 105
e 21 113
e 21 121
e 22 26
e 22 128
e 22 141
e 23 25
e 23 34
e 23 42
e 23 60
e 23 68
e 23 70
e 23 76
e 23 83
e 23 92
e 23 93
e 23 96
e 23 97
e 23 100
e 23 119
e 24 35
e 24 92
e 24 132
e 25 27
e 25 28
e 25 32
e 25 38
e 25 46
e 25 48
e 25 52
e 25 63
e 25 75
e 25 76
e 25 82
e 25 90
e 25 91
e 25 112
e 25 120
e 25 125
e 25 138
e 26 31
e 26 32
e 26 36
e 26 52
e 26 53
e 26 90
e 27 29
e 27 50
e 27 73
e 28 30
e 28 54
e 28 71
e 28 125
e 29 54
e 29 82
e 29 87
e 29 93
e 29 104
e 29 141
e 30 40
e 30 45
e 30 51
e 30 53
e 30 61
e 30 116
e 30 117
e 30 126
e 31 71
e 32 92
e 32 122
e 32 125
e 32 132
e 32 136
e 33 34
e 33 41
e 33 51
e 33 77
e 33 81
e 33 105
e 34 83
e 34 129
e 35 39
e 35 42
e 35 73
e 35 99
e 35 114
e 35 124
e 35 138
e 36 68
e 37 54
e 37 57
e 37 66
e 37 73
e 37 74
e 37 105
e 37 111
e 37 132
e 38 44
e 38 50
e 38 51
e 38 55
e 38 63
e 38 72
e 38 76
e 38 77
e 38 94
e 38 100
e 38 102
e 38 114
e 39 65
e 39 126
e 40 43
e 40 55
e 40 56
e 41 58
e 41 63
e 41 66
e 43 48
e 43 68
e 43 79
e 43 104
e 43 110
e 43 116
e 43 122
e 44 73
e 44 81
e 44 90
e 44 91
e 44 95
e 44 124
e 44 139
e 45 52
e 45 56
e 47 48
e 47 80
e 47 100
e 47 127
e 48 61
e 48 126
e 48 133
e 49 77
e 49 86
e 49 111
e 50 78
e 50 102
e 50 103
e 50 127
e 51 61
e 51 98
e 52 85
e 52 99
e 52 133
e 52 137
e 53 96
e 53 117
e 54 61
e 54 64
e 54 74
e 54 84
e 54 114
e 55 90
e 57 58
e 57 81
e 57 136
e 58 65
e 58 83
e 58 89
e 58 94
e 58 113
e 59 65
e 59 74
e 59 123
e 60 70
e 60 101
e 60 113
e 62 71
e 62 102
e 63 80
e 64 119
e 64 139
e 66 109
e 67 106
e 67 137
e 68 135
e 69 129
e 70 78
e 70 91
e 70 123
e 71 96
e 71 120
e 71 128
e 72 94
e 72 108
e 73 107
e 74 84
e 74 106
e 74 110
e 74 118
e 74 137
e 76 93
e 78 82
e 78 89
e 78 104
e 78 107
e 79 138
e 80 96
e 81 95
e 81 119
e 81 130
e 83 140
e 84 137
e 86 89
e 86 141
e 88 140
e 89 99
e 91 139
e 92 131
e 93 120
e 94 129
e 95 123
e 96 100
e 97 99
e 97 115
e 98 104
e 98 115
e 99 128
e 100 105
e 100 133
e 101 130
e 103 124
e 105 112
e 105 115
e 105 118
e 107 126
e 108 116
e 113 122
e 117 125
e 119 124
e 121 140
e 124 127
e 132 140
